c turning on binary mode checking
c parsing input formula with 259840 variables and 1039919 clauses
c finished parsing, read 23672440 bytes from proof file
c detected empty clause; start verification via backward checking
c 11558 of 1039919 clauses in core                            
c 14280 of 605187 lemmas in core using 145685 resolution steps
c 0 RAT lemmas in core; 1282 redundant literals in core lemmas
s VERIFIED
c verification time: 2.820 seconds
